17	4
27	25	31	26	
0	0	0	0	0	3	2	3	4	
7	3	9	6	5	3	7	8	12	
9	10	5	8	10	2	5	12	
7	5	5	9	2	1	6	
4	5	4	8	8	1	17	
225	9	8	10	4	3	9	14	16	
175	1	9	5	5	1	17	
125	6	8	6	8	3	13	17	17	
175	8	5	7	2	3	10	11	17	
125	3	7	2	6	1	17	
100	4	9	8	5	3	17	17	17	
225	7	9	7	4	1	14	
3	10	2	5	3	3	15	17	17	
2	6	2	4	9	1	17	
5	6	5	5	10	1	17	
8	6	8	7	4	1	17	
0	0	0	0	0	0	
